(set-info :smt-lib-version 2.6)
(set-logic QF_BV)
(set-info :source |
Generated by: Yoni Zohar
Generated on: 2022-03-09
Generator: cvc5sy -- the sygus solver of cvc5
Application: equivalence checks of rewrite rule candidates with large (512) bit-widths
Target solver: cvc5, bitwuzla, yices
Publication: Yoni Zohar, Ahmed Irfan, Makai Mann, Aina Niemetz, Andres Nötzli, Mathias Preiner, Andrew Reynolds, Clark Barrett, Cesare Tinelli. Bit-Precise Reasoning via Int-Blasting. VMCAI 2022.
|)
(set-info :license "https://creativecommons.org/licenses/by/4.0/")
(set-info :category "crafted")
(set-info :status unknown)
(declare-const s (_ BitVec 512))
(declare-const t (_ BitVec 512))
(assert (distinct (bvand s (bvurem (bvand s t) s)) (bvurem (bvand s t) s)))
(check-sat)
(exit)
